p cnf 7230 17
-6757 -6803 6844 0
-6767 -6809 -6849 0
-6765 -6807 -6847 0
-6759 -6805 -6845 0
6767 -6850 0
6765 -6848 0
6759 -6846 0
6849 6850 0
6847 6848 0
6845 6846 0
6809 -6850 0
6807 -6848 0
6805 -6846 0
-6813 6852 0
6813 -6852 0
-6843 -6844 0
6843 6844 0
